; Copyright (c) 2026 The RIINA Authors. All rights reserved.
; Auto-generated from 02_FORMAL/coq/Industries/IndustryGovernment.v (23 validations)
; Generated by scripts/generate-full-stack.py
;
; Translation Validation for IndustryGovernment
; Layer 9: Verifies compiler backend preserves formal semantics.
; Each assertion checks source IR ≡ target code for a proven property.

(set-logic QF_LIA)
(set-option :produce-models true)

; IR node representation
(declare-sort IRNode 0)
(declare-sort TargetNode 0)

; fisma_to_nat: source semantics (matches Coq)
(declare-fun source_fisma_to_nat () Bool)
(declare-fun target_fisma_to_nat () Bool)
(assert (= source_fisma_to_nat target_fisma_to_nat))

; fisma_le: source semantics (matches Coq)
(declare-fun source_fisma_le () Bool)
(declare-fun target_fisma_le () Bool)
(assert (= source_fisma_le target_fisma_le))

; fedramp_to_nat: source semantics (matches Coq)
(declare-fun source_fedramp_to_nat () Bool)
(declare-fun target_fedramp_to_nat () Bool)
(assert (= source_fedramp_to_nat target_fedramp_to_nat))

; controls_for_baseline: source semantics (matches Coq)
(declare-fun source_controls_for_baseline () Bool)
(declare-fun target_controls_for_baseline () Bool)
(assert (= source_controls_for_baseline target_controls_for_baseline))

; nist_minimum_controls: source semantics (matches Coq)
(declare-fun source_nist_minimum_controls () Bool)
(declare-fun target_nist_minimum_controls () Bool)
(assert (= source_nist_minimum_controls target_nist_minimum_controls))

; fedramp_matches_fisma: source semantics (matches Coq)
(declare-fun source_fedramp_matches_fisma () Bool)
(declare-fun target_fedramp_matches_fisma () Bool)
(assert (= source_fedramp_matches_fisma target_fedramp_matches_fisma))

; cjis_min_key_bits: source semantics (matches Coq)
(declare-fun source_cjis_min_key_bits () Bool)
(declare-fun target_cjis_min_key_bits () Bool)
(assert (= source_cjis_min_key_bits target_cjis_min_key_bits))

; fips_to_nat: source semantics (matches Coq)
(declare-fun source_fips_to_nat () Bool)
(declare-fun target_fips_to_nat () Bool)
(assert (= source_fips_to_nat target_fips_to_nat))

; fips_le: source semantics (matches Coq)
(declare-fun source_fips_le () Bool)
(declare-fun target_fips_le () Bool)
(assert (= source_fips_le target_fips_le))

; required_fips_level: source semantics (matches Coq)
(declare-fun source_required_fips_level () Bool)
(declare-fun target_required_fips_level () Bool)
(assert (= source_required_fips_level target_required_fips_level))

; scan_frequency_days: source semantics (matches Coq)
(declare-fun source_scan_frequency_days () Bool)
(declare-fun target_scan_frequency_days () Bool)
(assert (= source_scan_frequency_days target_scan_frequency_days))

; poam_deadline_days: source semantics (matches Coq)
(declare-fun source_poam_deadline_days () Bool)
(declare-fun target_poam_deadline_days () Bool)
(assert (= source_poam_deadline_days target_poam_deadline_days))

; fisma_compliance: translation preserves property (matches Coq: Theorem)
(declare-fun source_fisma_compliance () Bool)
(declare-fun target_fisma_compliance () Bool)
(assert (= source_fisma_compliance target_fisma_compliance))

; fedramp_authorization: translation preserves property (matches Coq: Theorem)
(declare-fun source_fedramp_authorization () Bool)
(declare-fun target_fedramp_authorization () Bool)
(assert (= source_fedramp_authorization target_fedramp_authorization))

; nist_800_53_compliance: translation preserves property (matches Coq: Theorem)
(declare-fun source_nist_800_53_compliance () Bool)
(declare-fun target_nist_800_53_compliance () Bool)
(assert (= source_nist_800_53_compliance target_nist_800_53_compliance))

; cjis_compliance: translation preserves property (matches Coq: Theorem)
(declare-fun source_cjis_compliance () Bool)
(declare-fun target_cjis_compliance () Bool)
(assert (= source_cjis_compliance target_cjis_compliance))

; fips_140_3_compliance: translation preserves property (matches Coq: Theorem)
(declare-fun source_fips_140_3_compliance () Bool)
(declare-fun target_fips_140_3_compliance () Bool)
(assert (= source_fips_140_3_compliance target_fips_140_3_compliance))

; high_impact_all_families: translation preserves property (matches Coq: Theorem)
(declare-fun source_high_impact_all_families () Bool)
(declare-fun target_high_impact_all_families () Bool)
(assert (= source_high_impact_all_families target_high_impact_all_families))

; fips_crypto_required: translation preserves property (matches Coq: Theorem)
(declare-fun source_fips_crypto_required () Bool)
(declare-fun target_fips_crypto_required () Bool)
(assert (= source_fips_crypto_required target_fips_crypto_required))

; fisma_le_refl: translation preserves property (matches Coq: Lemma)
(declare-fun source_fisma_le_refl () Bool)
(declare-fun target_fisma_le_refl () Bool)
(assert (= source_fisma_le_refl target_fisma_le_refl))

; fisma_le_trans: translation preserves property (matches Coq: Lemma)
(declare-fun source_fisma_le_trans () Bool)
(declare-fun target_fisma_le_trans () Bool)
(assert (= source_fisma_le_trans target_fisma_le_trans))

; high_most_controls: translation preserves property (matches Coq: Theorem)
(declare-fun source_high_most_controls () Bool)
(declare-fun target_high_most_controls () Bool)
(assert (= source_high_most_controls target_high_most_controls))

; controls_monotone: translation preserves property (matches Coq: Theorem)
(declare-fun source_controls_monotone () Bool)
(declare-fun target_controls_monotone () Bool)
(assert (= source_controls_monotone target_controls_monotone))

; minimum_requires_access_control: translation preserves property (matches Coq: Theorem)
(declare-fun source_minimum_requires_access_control () Bool)
(declare-fun target_minimum_requires_access_control () Bool)
(assert (= source_minimum_requires_access_control target_minimum_requires_access_control))

; minimum_requires_audit: translation preserves property (matches Coq: Theorem)
(declare-fun source_minimum_requires_audit () Bool)
(declare-fun target_minimum_requires_audit () Bool)
(assert (= source_minimum_requires_audit target_minimum_requires_audit))

; minimum_requires_integrity: translation preserves property (matches Coq: Theorem)
(declare-fun source_minimum_requires_integrity () Bool)
(declare-fun target_minimum_requires_integrity () Bool)
(assert (= source_minimum_requires_integrity target_minimum_requires_integrity))

; alignment_low: translation preserves property (matches Coq: Theorem)
(declare-fun source_alignment_low () Bool)
(declare-fun target_alignment_low () Bool)
(assert (= source_alignment_low target_alignment_low))

; alignment_moderate: translation preserves property (matches Coq: Theorem)
(declare-fun source_alignment_moderate () Bool)
(declare-fun target_alignment_moderate () Bool)
(assert (= source_alignment_moderate target_alignment_moderate))

; alignment_high: translation preserves property (matches Coq: Theorem)
(declare-fun source_alignment_high () Bool)
(declare-fun target_alignment_high () Bool)
(assert (= source_alignment_high target_alignment_high))

; cjis_key_sufficient: translation preserves property (matches Coq: Theorem)
(declare-fun source_cjis_key_sufficient () Bool)
(declare-fun target_cjis_key_sufficient () Bool)
(assert (= source_cjis_key_sufficient target_cjis_key_sufficient))

; fips_le_refl: translation preserves property (matches Coq: Lemma)
(declare-fun source_fips_le_refl () Bool)
(declare-fun target_fips_le_refl () Bool)
(assert (= source_fips_le_refl target_fips_le_refl))

; high_requires_fips3: translation preserves property (matches Coq: Theorem)
(declare-fun source_high_requires_fips3 () Bool)
(declare-fun target_high_requires_fips3 () Bool)
(assert (= source_high_requires_fips3 target_high_requires_fips3))

; fips_requirement_monotone: translation preserves property (matches Coq: Theorem)
(declare-fun source_fips_requirement_monotone () Bool)
(declare-fun target_fips_requirement_monotone () Bool)
(assert (= source_fips_requirement_monotone target_fips_requirement_monotone))

; scan_frequency_decreasing: translation preserves property (matches Coq: Theorem)
(declare-fun source_scan_frequency_decreasing () Bool)
(declare-fun target_scan_frequency_decreasing () Bool)
(assert (= source_scan_frequency_decreasing target_scan_frequency_decreasing))

; poam_bounded: translation preserves property (matches Coq: Theorem)
(declare-fun source_poam_bounded () Bool)
(declare-fun target_poam_bounded () Bool)
(assert (= source_poam_bounded target_poam_bounded))

; Verify all translation validations are satisfiable
(check-sat)
(exit)
